benchmarks/bfuzz0/2568912664226121145485824261259202965.smt2
(set-logic QF_FP)
(declare-const x0 (_ FloatingPoint 11 53))
(declare-const x1 (_ FloatingPoint 11 53))
(declare-const x2 (_ FloatingPoint 11 53))
(declare-const x3 (_ FloatingPoint 11 53))
(declare-const x4 (_ FloatingPoint 11 53))
(declare-const x5 (_ FloatingPoint 11 53))
(declare-const x6 (_ FloatingPoint 11 53))
(declare-const x7 (_ FloatingPoint 11 53))
(declare-const x8 (_ FloatingPoint 11 53))
(declare-const x9 (_ FloatingPoint 11 53))
(declare-const x10 (_ FloatingPoint 11 53))
(declare-const x11 (_ FloatingPoint 11 53))
(declare-const x12 (_ FloatingPoint 11 53))
(declare-const x13 (_ FloatingPoint 11 53))
(declare-const x14 (_ FloatingPoint 11 53))
(declare-const x15 (_ FloatingPoint 11 53))
(declare-const x16 (_ FloatingPoint 11 53))
(declare-const x17 (_ FloatingPoint 11 53))
(declare-const x18 (_ FloatingPoint 11 53))
(assert (fp.geq (fp.div RNE (fp.mul RNE x18 x10) (fp.div RNE x10 x17)) (fp.mul RNE (fp.neg x18) (fp.add RNE x10 x16))))
(assert (fp.eq (fp.sub RNE (fp.div RNE x9 x13) (fp.neg x18)) (fp.mul RNE (fp.neg x11) (fp.div RNE x13 x9))))
(assert (fp.lt (fp.neg (fp.neg x13)) (fp.add RNE (fp.sub RNE x2 x14) (fp.div RNE x7 x0))))
(assert (fp.leq (fp.div RNE (fp.add RNE x14 x10) (fp.div RNE x7 x16)) (fp.div RNE (fp.mul RNE x14 x8) (fp.sub RNE x5 x9))))
(assert (fp.lt (fp.mul RNE (fp.add RNE x2 x18) (fp.sub RNE x18 x15)) (fp.mul RNE (fp.neg x13) (fp.div RNE x13 x2))))
(assert (fp.gt (fp.sub RNE (fp.add RNE x10 x15) (fp.add RNE x12 x12)) (fp.neg (fp.neg x12))))
(assert (fp.eq (fp.add RNE (fp.neg x6) (fp.div RNE x2 x8)) (fp.div RNE (fp.add RNE x3 x8) (fp.sub RNE x16 x5))))
(assert (fp.gt (fp.neg (fp.sub RNE x1 x1)) (fp.div RNE (fp.div RNE x16 x7) (fp.neg x14))))
(assert (fp.leq (fp.div RNE (fp.add RNE x13 x6) (fp.sub RNE x10 x15)) (fp.mul RNE (fp.sub RNE x8 x16) (fp.mul RNE x15 x3))))
(assert (fp.eq (fp.sub RNE (fp.neg x9) (fp.mul RNE x1 x0)) (fp.neg (fp.mul RNE x6 x12))))
(assert (fp.leq (fp.add RNE (fp.neg x16) (fp.div RNE x0 x4)) (fp.add RNE (fp.div RNE x8 x13) (fp.mul RNE x6 x13))))
(check-sat)
