db/data/2568912664226121145485824261259202965.z3.out
-------------------
2500.258151957
